smt2tut/hello.smt2
(set-option :produce-models true)
(set-logic QF_AUFBV)
(declare-fun A () (_ BitVec 16))
(declare-fun B () (_ BitVec 16))
(assert (= (bvmul A B) #x1234))
(assert (distinct A #x0001))
(assert (distinct B #x0001))
(check-sat)
(get-value (A B))
