rvaddiadd/results/hello.txt
PATTERN: addiadd with length 6 at 5 with value 1874
PATTERN: addiadd with length 6 at 3 with value 1794
PATTERN: addiadd with length 6 at 3 with value -1914
PATTERN: addiadd with length 6 at 3 with value 1704
PATTERN: addiadd with length 6 at 2 with value 1
PATTERN: addiadd with length 6 at 1 with value 1
PATTERN: addiadd with length 6 at 5 with value 40
PATTERN: addiadd with length 6 at 1 with value 1
PATTERN: addiadd with length 6 at 3 with value -1
PATTERN: addiadd with length 6 at 1 with value 3

Instruction count: 2498 (7416 bytes, avg 2.97 bytes/insn)

             addiadd       10 12bit=0.4003% 9bit=0.2402% avgbytes=6.00

Values for addiadd patterns:
                   1        3
                1874        1
                1794        1
                1704        1
                  40        1
                   3        1
                  -1        1
               -1914        1

